results/res_prop_muc/res_Cimatti_mathsat_cores/QF_UF/NEQ041_size7.smt.smt2.out

real	0m2.394s
user	0m2.232s
sys	0m0.119s
